1 11
2 9
3 4
4 5
5 1
6 1
7 1
8 1
9 16
10 17
11 18
12 13
13 14
14 1
15 1
16 5
17 15
18 16
19 3
20 12
21 9
22 7
23 2
24 10
25 17
26 4
27 6
28 8
29 8
30 13
31 14
32 18
33 11
34 18
35 12
36 17
37 14
38 1
39 18
40 15
41 8
42 3
43 1
44 12
45 18
46 9
47 1
48 15
49 16
50 13
51 3
52 11
53 2
54 16
55 5
56 4
57 8
58 14
59 10
60 16
61 1
62 18
63 10
64 17
65 4
66 17
67 9
68 7
69 6
70 11
71 15
72 2
73 10
74 5
75 1
76 15
77 7
78 3
79 16
80 13
81 5
